29
2 0 5
2 1 1
3 0 4
3 1 4
3 2 2
4 0 4
4 1 4
5 3 1
5 4 4
6 1 1
6 2 5
7 3 4
7 5 5
7 6 5
8 0 3
8 1 5
8 4 5
8 6 1
9 0 3
9 1 5
9 4 4
9 6 1
10 4 4
10 6 4
10 8 5
10 9 1
11 7 4
11 9 1
12 0 4
12 3 4
12 4 2
12 5 3
12 8 3
12 9 3
12 11 2
13 1 4
13 3 2
13 4 3
13 6 5
13 7 2
13 9 4
13 10 3
14 6 4
14 7 1
14 8 2
14 11 4
14 12 1
14 13 2
15 0 2
15 1 3
15 3 5
15 4 2
15 5 4
15 6 4
15 7 4
15 8 1
15 9 3
15 10 2
16 3 3
16 5 5
16 6 4
16 7 4
16 9 4
16 12 5
16 15 4
17 1 1
17 2 1
17 4 4
17 5 5
17 6 1
17 7 1
17 8 5
17 10 2
17 13 3
17 16 3
18 1 3
18 2 1
18 5 1
18 7 1
18 14 3
18 15 3
18 17 1
19 0 1
19 7 4
19 10 4
19 14 4
19 15 5
19 17 5
20 3 3
20 4 1
20 8 3
20 9 1
20 10 4
20 11 1
20 13 5
20 14 3
20 15 2
20 16 3
20 17 4
20 18 2
20 19 5
21 0 1
21 2 2
21 3 4
21 4 4
21 7 1
21 9 2
21 10 2
21 11 4
21 12 1
21 13 5
21 14 1
21 16 4
21 17 1
21 18 2
21 20 1
22 0 4
22 1 5
22 3 5
22 7 1
22 9 2
22 10 3
22 13 1
23 0 1
23 1 2
23 2 2
23 3 1
23 5 2
23 6 3
23 7 1
23 9 1
23 12 5
23 13 4
23 14 2
23 15 4
23 17 1
23 18 4
24 1 2
24 2 5
24 7 5
24 12 1
24 14 4
24 16 2
24 19 1
24 21 5
24 22 5
25 1 4
25 3 1
25 4 2
25 5 4
25 7 4
25 10 2
25 12 2
25 14 5
25 17 1
25 21 1
25 22 5
26 0 2
26 1 4
26 3 4
26 5 2
26 7 3
26 9 3
26 10 5
26 11 4
26 12 4
26 13 5
26 15 3
26 19 3
26 22 1
26 23 5
26 24 3
27 1 1
27 5 1
27 6 2
27 10 5
27 12 1
27 13 2
27 16 1
27 19 4
27 22 2
27 24 4
27 26 5
28 1 2
28 2 4
28 3 2
28 4 5
28 5 1
28 6 5
28 7 5
28 8 3
28 9 4
28 10 4
28 11 2
28 12 5
28 13 5
28 14 4
28 15 1
28 16 4
28 17 5
28 18 3
28 21 3
28 23 1
28 24 5
28 27 3
